results_rootrelaxation/bin012_080_043.srr.sol
solution status: optimal solution found
objective value:                               16.125
_var712_                                         0.25 	(obj:1)
_var718_                            0.125000000000001 	(obj:2)
_var744_                            0.250000000000001 	(obj:1)
_var748_                                         0.75 	(obj:0)
_var750_                            0.250000000000001 	(obj:1)
_var751_                                        0.125 	(obj:1)
_var753_                            0.125000000000001 	(obj:1)
_var760_                                          0.5 	(obj:2)
_var761_                                         0.25 	(obj:1)
_var778_                                        0.125 	(obj:2)
_var780_                            0.249999999999999 	(obj:2)
_var789_                            0.124999999999999 	(obj:2)
_var793_                            0.125000000000001 	(obj:2)
_var794_                            0.375000000000001 	(obj:1)
_var795_                            0.500000000000001 	(obj:1)
_var796_                            0.250000000000001 	(obj:2)
_var826_                            0.374999999999999 	(obj:2)
_var830_                                         0.25 	(obj:1)
_var832_                                         0.25 	(obj:1)
_var834_                            0.374999999999999 	(obj:2)
_var842_                                        0.125 	(obj:1)
_var844_                            0.375000000000001 	(obj:2)
_var846_                            0.124999999999999 	(obj:1)
_var851_                            0.250000000000001 	(obj:2)
_var856_                                         0.25 	(obj:2)
_var857_                            0.499999999999999 	(obj:2)
_var860_                                        0.125 	(obj:1)
_var862_                            0.249999999999999 	(obj:1)
_var867_                                         0.25 	(obj:2)
_var877_                            0.124999999999999 	(obj:2)
_var880_                                         0.25 	(obj:2)
_var885_                                         0.25 	(obj:2)
_var886_                            0.250000000000002 	(obj:2)
_var894_                                         0.25 	(obj:2)
_var895_                                         0.25 	(obj:1)
_var903_                            0.249999999999999 	(obj:1)
_var906_                                         0.25 	(obj:1)
_var910_                            0.124999999999999 	(obj:1)
_var911_                                         0.25 	(obj:2)
_var912_                            0.250000000000001 	(obj:1)
_var914_                            0.125000000000002 	(obj:2)
_var918_                            0.250000000000001 	(obj:2)
_var922_                            0.124999999999999 	(obj:2)
_var924_                            0.125000000000001 	(obj:2)
