results_rootrelaxation/bin012_080_043.srr.log
SCIP version 8.0.3.5 [precision: 8 byte] [memory: block] [mode: optimized] [LP solver: Soplex 6.0.1.3] [GitHash: 438792519e]
Copyright (c) 2002-2023 Zuse Institute Berlin (ZIB)

External libraries: 
  Readline 8.1         GNU library for command line editing (gnu.org/s/readline)
  Soplex 6.0.1.3       Linear Programming Solver developed at Zuse Institute Berlin (soplex.zib.de) [GitHash: 713be0fe]
  CppAD 20180000.0     Algorithmic Differentiation of C++ algorithms developed by B. Bell (github.com/coin-or/CppAD)
  ZLIB 1.2.11          General purpose compression library by J. Gailly and M. Adler (zlib.net)
  bliss 0.77           Computing Graph Automorphism Groups by T. Junttila and P. Kaski (www.tcs.hut.fi/Software/bliss/)

user parameter file <scip.set> not found - using default parameters

srr/relaxation = TRUE

read problem <instances/bin012_080_043.srr>
============

Original problem: 
original problem has 0 variables (0 bin, 0 int, 0 impl, 0 cont) and 77 constraints

presolving:
presolving (1 rounds: 1 fast, 1 medium, 1 exhaustive):
 0 deleted vars, 0 deleted constraints, 0 added constraints, 0 tightened bounds, 0 added holes, 0 changed sides, 0 changed coefficients
 0 implications, 0 cliques
presolved problem has 0 variables (0 bin, 0 int, 0 impl, 0 cont) and 77 constraints
     77 constraints of type <linear>
Presolving Time: 0.00

 time | node  | left  |LP iter|LP it/n|mem/heur|mdpt |vars |cons |rows |cuts |sepa|confs|strbr|  dualbound   | primalbound  |  gap   | compl. 
  0.0s|     1 |     0 |     1 |     - |   710k |   0 |   1 |  77 |  77 |   0 |  0 |   0 |   0 |      --      |      --      |    Inf | unknown
r 0.0s|     1 |     0 |  1012 |     - |simplero|   0 | 686 |  77 |  77 |   0 |  0 |   0 |   0 |      --      | 3.473694e+01 |    Inf | unknown
r 0.0s|     1 |     0 |  1051 |     - |simplero|   0 | 697 |  77 |  77 |   0 |  0 |   0 |   0 |      --      | 3.365660e+01 |    Inf | unknown
r 0.1s|     1 |     0 |  1114 |     - |simplero|   0 | 708 |  77 |  77 |   0 |  0 |   0 |   0 |      --      | 3.089709e+01 |    Inf | unknown
r 0.1s|     1 |     0 |  1179 |     - |simplero|   0 | 719 |  77 |  77 |   0 |  0 |   0 |   0 |      --      | 2.682334e+01 |    Inf | unknown
r 0.1s|     1 |     0 |  1231 |     - |simplero|   0 | 730 |  77 |  77 |   0 |  0 |   0 |   0 |      --      | 2.614464e+01 |    Inf | unknown
r 0.1s|     1 |     0 |  1275 |     - |simplero|   0 | 741 |  77 |  77 |   0 |  0 |   0 |   0 |      --      | 2.495222e+01 |    Inf | unknown
r 0.1s|     1 |     0 |  1339 |     - |simplero|   0 | 752 |  77 |  77 |   0 |  0 |   0 |   0 |      --      | 2.341780e+01 |    Inf | unknown
r 0.1s|     1 |     0 |  1400 |     - |simplero|   0 | 763 |  77 |  77 |   0 |  0 |   0 |   0 |      --      | 2.205202e+01 |    Inf | unknown
r 0.1s|     1 |     0 |  1435 |     - |simplero|   0 | 774 |  77 |  77 |   0 |  0 |   0 |   0 |      --      | 2.152059e+01 |    Inf | unknown
r 0.1s|     1 |     0 |  1457 |     - |simplero|   0 | 774 |  77 |  77 |   0 |  0 |   0 |   0 |      --      | 2.139225e+01 |    Inf | unknown
r 0.1s|     1 |     0 |  1491 |     - |simplero|   0 | 785 |  77 |  77 |   0 |  0 |   0 |   0 |      --      | 2.049469e+01 |    Inf | unknown
r 0.1s|     1 |     0 |  1502 |     - |simplero|   0 | 785 |  77 |  77 |   0 |  0 |   0 |   0 |      --      | 2.044671e+01 |    Inf | unknown
r 0.1s|     1 |     0 |  1564 |     - |simplero|   0 | 796 |  77 |  77 |   0 |  0 |   0 |   0 |      --      | 1.947963e+01 |    Inf | unknown
r 0.1s|     1 |     0 |  1572 |     - |simplero|   0 | 796 |  77 |  77 |   0 |  0 |   0 |   0 |      --      | 1.946679e+01 |    Inf | unknown
 time | node  | left  |LP iter|LP it/n|mem/heur|mdpt |vars |cons |rows |cuts |sepa|confs|strbr|  dualbound   | primalbound  |  gap   | compl. 
r 0.1s|     1 |     0 |  1607 |     - |simplero|   0 | 807 |  77 |  77 |   0 |  0 |   0 |   0 |      --      | 1.903549e+01 |    Inf | unknown
r 0.1s|     1 |     0 |  1616 |     - |simplero|   0 | 807 |  77 |  77 |   0 |  0 |   0 |   0 |      --      | 1.897589e+01 |    Inf | unknown
r 0.1s|     1 |     0 |  1661 |     - |simplero|   0 | 818 |  77 |  77 |   0 |  0 |   0 |   0 |      --      | 1.846935e+01 |    Inf | unknown
r 0.1s|     1 |     0 |  1668 |     - |simplero|   0 | 818 |  77 |  77 |   0 |  0 |   0 |   0 |      --      | 1.846141e+01 |    Inf | unknown
r 0.1s|     1 |     0 |  1703 |     - |simplero|   0 | 829 |  77 |  77 |   0 |  0 |   0 |   0 |      --      | 1.796336e+01 |    Inf | unknown
r 0.1s|     1 |     0 |  1708 |     - |simplero|   0 | 829 |  77 |  77 |   0 |  0 |   0 |   0 |      --      | 1.794842e+01 |    Inf | unknown
r 0.1s|     1 |     0 |  1730 |     - |simplero|   0 | 840 |  77 |  77 |   0 |  0 |   0 |   0 |      --      | 1.769026e+01 |    Inf | unknown
r 0.1s|     1 |     0 |  1742 |     - |simplero|   0 | 840 |  77 |  77 |   0 |  0 |   0 |   0 |      --      | 1.764723e+01 |    Inf | unknown
r 0.1s|     1 |     0 |  1775 |     - |simplero|   0 | 851 |  77 |  77 |   0 |  0 |   0 |   0 |      --      | 1.730325e+01 |    Inf | unknown
r 0.1s|     1 |     0 |  1783 |     - |simplero|   0 | 851 |  77 |  77 |   0 |  0 |   0 |   0 |      --      | 1.728601e+01 |    Inf | unknown
r 0.1s|     1 |     0 |  1787 |     - |simplero|   0 | 851 |  77 |  77 |   0 |  0 |   0 |   0 |      --      | 1.728343e+01 |    Inf | unknown
r 0.1s|     1 |     0 |  1832 |     - |simplero|   0 | 862 |  77 |  77 |   0 |  0 |   0 |   0 |      --      | 1.686606e+01 |    Inf | unknown
r 0.1s|     1 |     0 |  1868 |     - |simplero|   0 | 873 |  77 |  77 |   0 |  0 |   0 |   0 |      --      | 1.658507e+01 |    Inf | unknown
r 0.1s|     1 |     0 |  1877 |     - |simplero|   0 | 873 |  77 |  77 |   0 |  0 |   0 |   0 |      --      | 1.656718e+01 |    Inf | unknown
r 0.1s|     1 |     0 |  1902 |     - |simplero|   0 | 884 |  77 |  77 |   0 |  0 |   0 |   0 |      --      | 1.649514e+01 |    Inf | unknown
 time | node  | left  |LP iter|LP it/n|mem/heur|mdpt |vars |cons |rows |cuts |sepa|confs|strbr|  dualbound   | primalbound  |  gap   | compl. 
r 0.1s|     1 |     0 |  1938 |     - |simplero|   0 | 894 |  77 |  77 |   0 |  0 |   0 |   0 |      --      | 1.638843e+01 |    Inf | unknown
r 0.1s|     1 |     0 |  1941 |     - |simplero|   0 | 894 |  77 |  77 |   0 |  0 |   0 |   0 |      --      | 1.638414e+01 |    Inf | unknown
  0.1s|     1 |     0 |  1947 |     - |  4098k |   0 | 894 |  77 |  77 |   0 |  0 |   0 |   0 |      --      | 1.638414e+01 |    Inf | unknown
r 0.1s|     1 |     0 |  1947 |     - |simplero|   0 | 894 |  77 |  77 |   0 |  0 |   0 |   0 |      --      | 1.638194e+01 |    Inf | unknown
r 0.1s|     1 |     0 |  1953 |     - |simplero|   0 | 894 |  77 |  77 |   0 |  0 |   0 |   0 |      --      | 1.638123e+01 |    Inf | unknown
r 0.1s|     1 |     0 |  1966 |     - |simplero|   0 | 904 |  77 |  77 |   0 |  0 |   0 |   0 |      --      | 1.632732e+01 |    Inf | unknown
r 0.1s|     1 |     0 |  1983 |     - |simplero|   0 | 910 |  77 |  77 |   0 |  0 |   0 |   0 |      --      | 1.628843e+01 |    Inf | unknown
r 0.1s|     1 |     0 |  1986 |     - |simplero|   0 | 910 |  77 |  77 |   0 |  0 |   0 |   0 |      --      | 1.628820e+01 |    Inf | unknown
r 0.1s|     1 |     0 |  2008 |     - |simplero|   0 | 917 |  77 |  77 |   0 |  0 |   0 |   0 |      --      | 1.622024e+01 |    Inf | unknown
r 0.1s|     1 |     0 |  2019 |     - |simplero|   0 | 917 |  77 |  77 |   0 |  0 |   0 |   0 |      --      | 1.620915e+01 |    Inf | unknown
r 0.1s|     1 |     0 |  2020 |     - |simplero|   0 | 917 |  77 |  77 |   0 |  0 |   0 |   0 |      --      | 1.620898e+01 |    Inf | unknown
r 0.1s|     1 |     0 |  2039 |     - |simplero|   0 | 922 |  77 |  77 |   0 |  0 |   0 |   0 |      --      | 1.617593e+01 |    Inf | unknown
r 0.1s|     1 |     0 |  2050 |     - |simplero|   0 | 925 |  77 |  77 |   0 |  0 |   0 |   0 |      --      | 1.612500e+01 |    Inf | unknown
  0.1s|     1 |     0 |  2062 |     - |  4209k |   0 | 929 |  77 |  77 |   0 |  0 |   0 |   0 | 1.612500e+01 | 1.612500e+01 |   0.00%| unknown
  0.1s|     1 |     0 |  2062 |     - |  4209k |   0 | 929 |  77 |  77 |   0 |  0 |   0 |   0 | 1.612500e+01 | 1.612500e+01 |   0.00%| unknown

SCIP Status        : problem is solved [optimal solution found]
Solving Time (sec) : 0.11
Solving Nodes      : 1
Primal Bound       : +1.61250000000000e+01 (41 solutions)
Dual Bound         : +1.61250000000000e+01
Gap                : 0.00 %

written transformed problem to file <results_rootrelaxation/bin012_080_043.srr.lp>
written transformed problem to file <results_rootrelaxation/bin012_080_043.srr.cip>

written solution information to file <results_rootrelaxation/bin012_080_043.srr.sol>



